SECTION Graph
Nodes 8
Edges 11
E 1 2 1
E 1 3 1
E 1 4 5
E 2 5 1
E 3 4 1
E 4 5 1
E 3 6 1
E 4 7 1
E 5 8 1
E 6 7 5
E 7 8 1
END

SECTION Terminals
Terminals 3
T 2
T 3
T 7
END

SECTION Tree Decomposition
s td 5 4 8
b 1 1 2 5
b 2 1 3 4 5
b 3 3 6 7
b 4 3 4 5 7
b 5 5 7 8
1 2
2 4
3 4
4 5
END

EOF
